NAME: random-67-18539
TYPE: TSP
COMMENT: size=67 seed=18539
DIMENSION: 136
EDGE_WEIGHT_TYPE: EUC_2D
NODE_COORD_SECTION
+0 973 825
-0 973 825
+1 498 435
-1 32 747
+2 826 935
-2 637 972
+3 153 558
-3 816 577
+4 279 57
-4 884 235
+5 184 487
-5 558 520
+6 351 991
-6 873 261
+7 160 212
-7 511 104
+8 313 200
-8 628 192
+9 665 430
-9 397 388
+10 600 103
-10 968 102
+11 949 46
-11 169 602
+12 981 193
-12 669 635
+13 636 704
-13 32 468
+14 543 917
-14 485 783
+15 321 583
-15 474 578
+16 462 188
-16 305 658
+17 102 438
-17 168 472
+18 273 180
-18 695 76
+19 689 488
-19 376 725
+20 123 38
-20 813 378
+21 551 968
-21 339 900
+22 473 591
-22 351 631
+23 166 193
-23 502 173
+24 491 443
-24 258 69
+25 272 405
-25 841 310
+26 540 703
-26 278 19
+27 990 329
-27 234 325
+28 748 414
-28 417 952
+29 771 293
-29 2 269
+30 298 993
-30 581 352
+31 699 879
-31 518 461
+32 843 276
-32 117 799
+33 9 971
-33 69 883
+34 797 223
-34 74 267
+35 830 245
-35 212 61
+36 861 844
-36 997 597
+37 487 2
-37 414 223
+38 813 100
-38 760 295
+39 968 409
-39 767 378
+40 979 430
-40 808 134
+41 960 414
-41 398 12
+42 719 744
-42 310 273
+43 581 900
-43 817 879
+44 373 613
-44 651 753
+45 602 868
-45 549 537
+46 373 985
-46 438 65
+47 658 907
-47 424 539
+48 55 253
-48 111 683
+49 499 619
-49 813 945
+50 385 359
-50 802 73
+51 681 424
-51 88 348
+52 292 258
-52 990 83
+53 96 574
-53 413 980
+54 444 797
-54 929 484
+55 943 248
-55 222 688
+56 191 213
-56 520 741
+57 431 768
-57 364 340
+58 318 116
-58 789 644
+59 608 689
-59 136 464
+60 246 901
-60 296 496
+61 514 691
-61 630 203
+62 75 787
-62 799 530
+63 473 235
-63 590 243
+64 573 457
-64 374 164
+65 967 864
-65 307 815
+66 270 60
-66 398 314
+67 449 179
-67 19 773
PRECEDENCE_SECTION
+0 -0
+1 -1
+2 -2
+3 -3
+4 -4
+5 -5
+6 -6
+7 -7
+8 -8
+9 -9
+10 -10
+11 -11
+12 -12
+13 -13
+14 -14
+15 -15
+16 -16
+17 -17
+18 -18
+19 -19
+20 -20
+21 -21
+22 -22
+23 -23
+24 -24
+25 -25
+26 -26
+27 -27
+28 -28
+29 -29
+30 -30
+31 -31
+32 -32
+33 -33
+34 -34
+35 -35
+36 -36
+37 -37
+38 -38
+39 -39
+40 -40
+41 -41
+42 -42
+43 -43
+44 -44
+45 -45
+46 -46
+47 -47
+48 -48
+49 -49
+50 -50
+51 -51
+52 -52
+53 -53
+54 -54
+55 -55
+56 -56
+57 -57
+58 -58
+59 -59
+60 -60
+61 -61
+62 -62
+63 -63
+64 -64
+65 -65
+66 -66
+67 -67
EOF
